c File: instances/26_0.35_3.col
c
c Description: Random graph of size 26 vertices and P(0.35) of edges between any two vertices.
p col 26 325
e 1 2
e 1 3
e 1 4
e 1 6
e 1 7
e 1 10
e 1 12
e 1 13
e 1 16
e 1 25
e 1 26
e 2 16
e 2 19
e 2 21
e 2 22
e 2 24
e 3 5
e 3 8
e 3 10
e 3 14
e 3 17
e 3 20
e 3 24
e 4 5
e 4 7
e 4 8
e 4 9
e 4 10
e 4 12
e 4 15
e 4 16
e 4 19
e 4 24
e 4 26
e 5 7
e 5 8
e 5 9
e 5 10
e 5 16
e 5 17
e 5 19
e 5 23
e 6 9
e 6 21
e 6 23
e 6 25
e 7 8
e 7 9
e 7 10
e 7 14
e 7 15
e 7 16
e 7 21
e 7 25
e 7 26
e 8 11
e 8 12
e 8 13
e 8 15
e 8 16
e 8 17
e 8 24
e 8 26
e 9 10
e 9 11
e 9 12
e 9 14
e 9 21
e 9 26
e 10 12
e 10 13
e 10 16
e 10 19
e 10 20
e 10 22
e 10 23
e 11 15
e 11 19
e 11 22
e 11 24
e 12 14
e 12 16
e 12 22
e 12 23
e 12 24
e 12 25
e 13 16
e 13 18
e 13 20
e 13 24
e 14 18
e 14 19
e 14 20
e 14 22
e 15 16
e 15 21
e 15 22
e 15 23
e 16 17
e 16 18
e 16 22
e 16 25
e 17 24
e 18 22
e 18 23
e 18 24
e 18 25
e 19 24
e 20 23
e 22 25
e 23 24
e 24 26